7    8    2
 3  2 1 2 16 2 3 4 32 2 7 8 24
 3  2 1 2 40 2 5 6 20 2 3 4 36
 3  2 5 6 24 2 7 8 16 2 1 2 30
 2  2 7 8 28 2 3 4 36
 2  2 5 6 20 2 1 2 30
 3  2 1 2 16 2 3 4 32 2 7 8 24
 3  2 1 2 40 2 5 6 20 2 3 4 36